proyfinal/src/viki/013/experimentInOfficeAgust.take6.output/0b932165-2f35-4c0c-b3bf-7a9093a63448.als.dat
{'cnf.clauses': '118081',
 'cnf.totvars': '69608',
 'conflict literals': '4597',
 'conflicts': '442',
 'decisions': '6575',
 'memused.mb': '17.06',
 'outcome': 'UNSAT',
 'propagations': '646006',
 'restarts': '4',
 'solver.msecs': 61,
 'task.msecs': 114}
